Si diamond cubic
   1.00000000000000
     5.4307000000000000    0.0000000000000000    0.0000000000000000
     0.0000000000000000    5.4307000000000000    0.0000000000000000
     0.0000000000000000    0.0000000000000000    5.4307000000000000
   Si
     8
Direct
  0.0000000000000000  0.0000000000000000  0.0000000000000000
  0.0000000000000000  0.5000000000000000  0.5000000000000000
  0.5000000000000000  0.0000000000000000  0.5000000000000000
  0.5000000000000000  0.5000000000000000  0.0000000000000000
  0.2500000000000000  0.2500000000000000  0.2500000000000000
  0.2500000000000000  0.7500000000000000  0.7500000000000000
  0.7500000000000000  0.2500000000000000  0.7500000000000000
  0.7500000000000000  0.7500000000000000  0.2500000000000000
